p ds 20 5
1 2
1 3
1 6
1 10
1 11
1 14
1 15
1 16
1 17
1 18
1 20
2 3
2 6
2 8
2 9
2 10
2 11
2 12
2 13
2 15
2 16
2 17
2 19
3 8
3 11
3 12
3 13
3 14
3 15
3 16
3 18
3 19
3 20
4 6
4 7
4 8
4 9
4 10
4 12
4 14
4 15
4 16
4 17
4 19
4 20
5 6
5 7
5 8
5 12
5 13
5 14
5 15
5 16
5 18
5 19
6 7
6 9
6 13
6 16
6 18
6 19
7 8
7 11
7 12
7 14
7 18
7 20
8 12
8 16
8 18
8 20
9 10
9 11
9 19
10 11
10 12
10 14
10 15
10 17
10 18
10 20
11 13
11 14
11 19
12 13
12 15
12 16
13 14
13 18
13 19
14 16
14 19
14 20
15 17
15 18
15 20
16 17
16 20
18 19
